Route #1: 4 92 182 57 133 40 147 31 108 56 45 85 165 177 65 128 99 168 94 151 53 160 109 189 125 112 192 101 50 33 157 66 30 64 67 
Route #2: 28 6 49 14 132 78 171 130 187 150 
Route #3: 100 37 9 12 59 143 188 139 21 89 166 29 173 86 38 32 114 117 23 74 52 106 22 70 126 148 83 36 
Route #4: 140 54 155 88 84 199 127 118 105 69 176 113 134 58 191 87 144 123 137 71 11 115 121 17 174 13 8 1 60 75 97 175 
Route #5: 142 24 152 167 169 72 98 16 119 161 195 129 41 158 194 55 81 107 82 154 
Route #6: 153 47 200 103 7 179 15 102 156 131 48 136 3 180 43 124 68 18 183 196 184 190 27 61 198 111 51 110 90 44 95 116 145 91 80 178 79 96 34 76 2 185 141 193 19 146 39 
Route #7: 163 162 63 149 42 172 197 5 62 26 159 181 35 104 164 25 170 10 77 122 20 46 138 186 135 73 93 120 
Cost 2491.4
